c description: Random 3-CNF over 16 variables and 68 clauses
c generator: CNFgen (0.9.2)
c copyright: (C) 2012-2022 Massimo Lauria <massimo.lauria@uniroma1.it>
c url: https://massimolauria.net/cnfgen
c command line: cnfgen --output CNF_4.28/16_bit_68_81.cnf randkcnf 3 16 68
c
p cnf 16 68
6 -8 12 0
-9 -11 -12 0
2 8 -15 0
6 7 -14 0
10 13 14 0
-4 -7 16 0
-2 6 -7 0
-10 -14 16 0
-4 12 -15 0
-2 -12 -16 0
3 -4 8 0
-1 -2 -5 0
3 5 14 0
6 8 10 0
4 -8 14 0
5 -7 -16 0
4 -6 -13 0
-6 -10 15 0
3 -6 15 0
6 -9 14 0
3 -6 11 0
-5 12 -15 0
3 7 -9 0
3 11 -14 0
-4 -12 -13 0
7 12 -16 0
-6 12 -13 0
-4 -5 13 0
1 -8 16 0
-6 12 -16 0
-2 -4 -14 0
-1 8 13 0
8 14 16 0
5 14 -15 0
-7 -12 14 0
4 5 -9 0
-9 14 15 0
-4 -9 -10 0
3 7 -16 0
-4 -6 -12 0
-10 12 14 0
-4 -5 14 0
-4 -6 12 0
5 10 -12 0
-6 12 14 0
2 3 -7 0
-3 10 -11 0
-5 -6 10 0
-2 -9 -14 0
-7 -11 12 0
-3 -12 14 0
5 7 -12 0
5 6 11 0
2 -10 12 0
5 10 -13 0
3 -7 -9 0
-1 4 5 0
-5 -15 -16 0
-1 9 16 0
3 -11 -14 0
-8 -13 -15 0
-2 7 -15 0
-5 9 10 0
2 -5 -14 0
-3 -12 -13 0
-4 10 -16 0
-10 -12 -15 0
-5 -9 16 0
